
Gurobi 13.0.1 (linux64) logging started Fri Mar 27 08:56:39 2026

Set parameter LogFile to value "logs_sparse/100B_6F_robust_gamma_0d25_theta_0d05199999999999999_2026-03-27_08h55m43s.log"
Set parameter MIPGap to value 0.005
Set parameter OptimalityTol to value 0.005
Gurobi Optimizer version 13.0.1 build v13.0.1rc0 (linux64 - "Linux Mint 22")

CPU model: 12th Gen Intel(R) Core(TM) i7-12700, instruction set [SSE2|AVX|AVX2]
Thread count: 20 physical cores, 20 logical processors, using up to 20 threads

Non-default parameters:
TimeLimit  3600
SoftMemLimit  12
MIPGap  0.005
OptimalityTol  0.005

Optimize a model with 120301 rows, 3061121 columns and 9258486 nonzeros (Max)
Model fingerprint: 0xc76f7ec5
Model has 2970111 linear objective coefficients
Variable types: 31121 continuous, 3030000 integer (3030000 binary)
Coefficient statistics:
  Matrix range     [3e-05, 1e+05]
  Objective range  [1e+00, 3e+03]
  Bounds range     [1e+00, 1e+05]
  RHS range        [1e+00, 1e+05]

Presolve removed 78617 rows and 2622635 columns
Presolve time: 1.59s
Presolved: 41684 rows, 438486 columns, 1406966 nonzeros
Variable types: 10841 continuous, 427645 integer (427645 binary)
Found heuristic solution: objective -4.57072e+08
Performing another presolve...
Presolve added 0 rows and 10 columns
Presolve removed 20 rows and 0 columns
Presolve time: 2.07s
Deterministic concurrent LP optimizer: primal simplex, dual simplex, and barrier
Showing barrier log only...

Root barrier log...

Ordering time: 0.91s

Barrier statistics:
 AA' NZ     : 7.117e+05
 Factor NZ  : 5.951e+06 (roughly 240 MB of memory)
 Factor Ops : 1.649e+09 (less than 1 second per iteration)
 Threads    : 18

                  Objective                Residual
Iter       Primal          Dual         Primal    Dual     Compl     Time
   0  -2.42801494e+12  1.78614645e+09  4.66e+07 1.02e+03  1.63e+07     6s
   1  -3.05413491e+11  3.78959099e+09  5.88e+06 1.28e+03  2.09e+06     7s
   2  -5.19733838e+09  2.96116814e+09  1.06e+05 1.78e+01  4.06e+04     7s
   3  -3.02154345e+08  2.64558121e+09  9.43e+03 7.71e-02  5.83e+03     7s
   4   2.15548174e+08  1.51590954e+09  5.36e+02 1.76e-01  1.57e+03     7s
   5   2.97990104e+08  6.61864937e+08  3.21e+01 1.35e-01  4.13e+02     7s
   6   3.33499133e+08  4.57766673e+08  9.73e+00 4.33e-02  1.41e+02     7s
   7   3.44616983e+08  3.78698078e+08  2.86e+00 1.16e-02  3.85e+01     7s
   8   3.47580943e+08  3.60875814e+08  1.05e+00 3.87e-03  1.49e+01     7s
   9   3.48903755e+08  3.54760805e+08  3.79e-01 1.52e-03  6.55e+00     7s
  10   3.49130591e+08  3.52273544e+08  2.80e-01 6.31e-04  3.51e+00     7s
  11   3.49249882e+08  3.51173552e+08  2.34e-01 2.79e-04  2.15e+00     7s
  12   3.49353496e+08  3.50709052e+08  1.95e-01 1.45e-04  1.51e+00     8s
  13   3.49594668e+08  3.50449264e+08  1.02e-01 9.32e-05  9.53e-01     8s
  14   3.49737374e+08  3.50215878e+08  4.19e-02 4.77e-05  5.33e-01     8s
  15   3.49806932e+08  3.50053125e+08  2.29e-02 2.08e-05  2.74e-01     8s
  16   3.49836338e+08  3.49999034e+08  1.54e-02 1.22e-05  1.81e-01     8s
  17   3.49854109e+08  3.49961596e+08  1.11e-02 5.94e-06  1.20e-01     8s
  18   3.49873568e+08  3.49942676e+08  6.47e-03 3.70e-06  7.70e-02     8s
  19   3.49882721e+08  3.49930639e+08  4.36e-03 2.35e-06  5.34e-02     8s
  20   3.49887940e+08  3.49924065e+08  3.18e-03 1.66e-06  4.02e-02     8s
  21   3.49895260e+08  3.49917867e+08  1.55e-03 1.07e-06  2.52e-02     8s
  22   3.49897430e+08  3.49915107e+08  1.06e-03 8.19e-07  1.97e-02     9s
  23   3.49898744e+08  3.49910398e+08  7.78e-04 4.20e-07  1.30e-02     9s
  24   3.49900342e+08  3.49908479e+08  4.51e-04 2.89e-07  9.07e-03     9s
  25   3.49900993e+08  3.49907097e+08  3.18e-04 1.89e-07  6.80e-03     9s
  26   3.49901477e+08  3.49906128e+08  2.24e-04 1.35e-07  5.18e-03     9s
  27   3.49902001e+08  3.49905060e+08  1.25e-04 6.67e-08  3.41e-03     9s
  28   3.49902160e+08  3.49904209e+08  9.60e-05 2.04e-08  2.28e-03     9s
  29   3.49902490e+08  3.49903894e+08  3.98e-05 1.23e-08  1.56e-03     9s
  30   3.49902593e+08  3.49903576e+08  2.19e-05 4.38e-09  1.09e-03    10s
  31   3.49902621e+08  3.49903284e+08  1.74e-05 6.48e-10  7.38e-04    10s
  32   3.49902661e+08  3.49903044e+08  1.15e-05 6.10e-10  4.27e-04    10s
  33   3.49902686e+08  3.49902961e+08  8.29e-06 7.17e-10  3.07e-04    10s
  34   3.49902708e+08  3.49902942e+08  5.40e-06 9.99e-10  2.61e-04    10s
  35   3.49902721e+08  3.49902876e+08  3.63e-06 7.07e-10  1.73e-04    10s
  36   3.49902728e+08  3.49902841e+08  2.65e-06 6.62e-10  1.26e-04    10s
  37   3.49902731e+08  3.49902840e+08  2.32e-06 9.72e-10  1.22e-04    10s
  38   3.49902737e+08  3.49902807e+08  1.63e-06 7.99e-10  7.84e-05    10s
  39   3.49902746e+08  3.49902781e+08  5.64e-07 6.84e-10  3.93e-05    11s
  40   3.49902748e+08  3.49902766e+08  2.99e-07 6.08e-10  1.98e-05    11s
  41   3.49902750e+08  3.49902756e+08  8.49e-08 5.35e-10  6.36e-06    11s
  42   3.49902751e+08  3.49902752e+08  2.03e-08 4.67e-10  1.83e-06    11s
  43   3.49902751e+08  3.49902752e+08  1.07e-08 6.67e-10  1.30e-06    11s

Barrier solved model in 43 iterations and 11.05 seconds (14.80 work units)
Optimal objective 3.49902751e+08


Root crossover log...

   13607 DPushes remaining with DInf 0.0000000e+00                11s
       0 DPushes remaining with DInf 0.0000000e+00                11s

    8964 PPushes remaining with PInf 2.4581716e-01                11s
       0 PPushes remaining with PInf 0.0000000e+00                12s

  Push phase complete: Pinf 0.0000000e+00, Dinf 2.6959842e+05     12s


Root simplex log...

Iteration    Objective       Primal Inf.    Dual Inf.      Time
   22200    3.4990275e+08   0.000000e+00   2.695980e+05     12s
   26261    3.4990275e+08   0.000000e+00   0.000000e+00     13s
Crossover time: 1.76 seconds (2.16 work units)
Concurrent spin time: 1.49s (can be avoided by choosing Method=3)

Solved with barrier

Root relaxation: objective 3.499028e+08, 26261 iterations, 9.56 seconds (9.43 work units)
Total elapsed time = 14.32s (DegenMoves)

    Nodes    |    Current Node    |     Objective Bounds      |     Work
 Expl Unexpl |  Obj  Depth IntInf | Incumbent    BestBd   Gap | It/Node Time

     0     0 3.4990e+08    0 7350 -4.571e+08 3.4990e+08   177%     -   15s
H    0     0                    1.201076e+08 3.4990e+08   191%     -   16s
H    0     0                    2.273858e+08 3.4990e+08  53.9%     -   16s
H    0     0                    2.728085e+08 3.4990e+08  28.3%     -   17s
H    0     0                    2.892230e+08 3.4990e+08  21.0%     -   24s
H    0     0                    2.892249e+08 3.4990e+08  21.0%     -   27s
     0     0 3.4990e+08    0 8304 2.8922e+08 3.4990e+08  21.0%     -  890s
H    0     0                    2.903020e+08 3.4990e+08  20.5%     -  906s
H    0     0                    2.904665e+08 3.4990e+08  20.5%     -  917s
H    0     0                    2.920083e+08 3.4990e+08  19.8%     - 1039s
H    0     0                    2.920094e+08 3.4990e+08  19.8%     - 1071s
H    0     0                    2.929144e+08 3.4990e+08  19.5%     - 1071s
H    0     0                    2.929464e+08 3.4990e+08  19.4%     - 1097s
H    0     0                    2.930967e+08 3.4990e+08  19.4%     - 1161s
H    0     0                    2.931984e+08 3.4990e+08  19.3%     - 1161s
H    0     0                    2.942992e+08 3.4990e+08  18.9%     - 1161s
H    0     0                    2.943313e+08 3.4990e+08  18.9%     - 1195s
H    0     0                    2.951827e+08 3.4990e+08  18.5%     - 1248s
H    0     0                    2.952033e+08 3.4990e+08  18.5%     - 1248s
H    0     0                    2.954902e+08 3.4990e+08  18.4%     - 1501s
H    0     0                    2.956804e+08 3.4990e+08  18.3%     - 1610s
H    0     0                    2.957303e+08 3.4990e+08  18.3%     - 1610s
H    0     0                    2.957878e+08 3.4990e+08  18.3%     - 1610s
H    0     0                    2.958003e+08 3.4990e+08  18.3%     - 1611s
H    0     0                    2.960468e+08 3.4990e+08  18.2%     - 1611s
     0     0 3.4990e+08    0 8305 2.9605e+08 3.4990e+08  18.2%     - 1875s
     0     0 3.4990e+08    0 8568 2.9605e+08 3.4990e+08  18.2%     - 2767s
H    0     0                    2.974398e+08 3.4990e+08  17.6%     - 2780s
H    0     0                    3.027830e+08 3.4990e+08  15.6%     - 2796s
H    0     0                    3.134157e+08 3.4990e+08  11.6%     - 2865s
H    0     0                    3.174933e+08 3.4990e+08  10.2%     - 2965s
H    0     0                    3.175979e+08 3.4990e+08  10.2%     - 3541s
H    0     0                    3.176538e+08 3.4990e+08  10.2%     - 3541s
H    0     0                    3.178211e+08 3.4990e+08  10.1%     - 3551s
H    0     0                    3.179842e+08 3.4990e+08  10.0%     - 3551s
H    0     0                    3.182098e+08 3.4990e+08  10.0%     - 3558s
H    0     0                    3.182100e+08 3.4990e+08  10.0%     - 3558s
H    0     0                    3.183350e+08 3.4990e+08  9.92%     - 3563s
H    0     0                    3.183356e+08 3.4990e+08  9.92%     - 3592s
H    0     0                    3.183358e+08 3.4990e+08  9.92%     - 3592s
H    0     0                    3.185058e+08 3.4990e+08  9.86%     - 3592s
H    0     0                    3.192619e+08 3.4990e+08  9.60%     - 3592s

Cutting planes:
  MIR: 1
  Flow cover: 26
  RLT: 2799

Explored 1 nodes (787791 simplex iterations) in 3600.10 seconds (6005.33 work units)
Thread count was 20 (of 20 available processors)

Solution count 10: 3.19262e+08 3.18506e+08 3.18336e+08 ... 3.17493e+08

Time limit reached
Best objective 3.192618946821e+08, best bound 3.499019959893e+08, gap 9.5972%
